
Gurobi 9.5.0 (linux64) logging started Fri Dec  8 09:10:06 2023

Set parameter LogFile to value "/lustre1/scratch/348/vsc34888/JointResearch/05.Models/06.Benchmarking/F.Representative_days_based_on_Line_Benefit_NN_OC_fy_1/RTS24_mod1_ByStages_nc10/openStarNet_RTS24_mod1_ByStages_nc10.log"
Set parameter Method to value 2
Set parameter MIPFocus to value 1
Set parameter Presolve to value 2
Set parameter RINS to value 100
Set parameter MIPGap to value 0.01
Set parameter Threads to value 36
Set parameter TimeLimit to value 259200
Set parameter IterationLimit to value 760000000
Gurobi Optimizer version 9.5.0 build v9.5.0rc5 (linux64)
Thread count: 36 physical cores, 36 logical processors, using up to 36 threads
Optimize a model with 3908 rows, 2663 columns and 10659 nonzeros
Model fingerprint: 0x1120ff5c
Variable types: 2642 continuous, 21 integer (21 binary)
Coefficient statistics:
  Matrix range     [1e-02, 4e+03]
  Objective range  [1e+00, 1e+00]
  Bounds range     [9e-05, 3e+00]
  RHS range        [9e-05, 3e+00]
Presolve removed 2328 rows and 1342 columns
Presolve time: 0.03s
Presolved: 1580 rows, 1321 columns, 5707 nonzeros
Variable types: 1300 continuous, 21 integer (21 binary)
Found heuristic solution: objective 93.3992784
Root relaxation presolve removed 3 rows and 3 columns
Root relaxation presolved: 1577 rows, 1318 columns, 5701 nonzeros

Root barrier log...

Ordering time: 0.02s

Barrier statistics:
 AA' NZ     : 2.815e+04
 Factor NZ  : 1.460e+05 (roughly 2 MB of memory)
 Factor Ops : 2.031e+07 (less than 1 second per iteration)
 Threads    : 36

                  Objective                Residual
Iter       Primal          Dual         Primal    Dual     Compl     Time
   0   6.20893160e+05 -5.51625911e+07  4.95e+00 1.35e+03  4.08e+04     0s
   1   5.23075138e+04 -1.37121555e+07  4.26e-01 1.09e-10  4.91e+03     0s
   2   1.71204942e+04 -9.87770591e+06  1.14e-01 8.04e-11  2.92e+03     0s
   3   5.90094566e+03 -6.09254873e+05  4.82e-04 3.92e-11  1.66e+02     0s
   4   3.95053119e+03 -9.36259044e+04  2.60e-06 2.91e-11  2.62e+01     0s
   5   9.12702646e+02 -1.18653398e+04  1.96e-13 1.46e-11  3.44e+00     0s
   6   3.64894042e+02 -2.99868675e+03  9.21e-14 3.64e-12  9.05e-01     0s
   7   1.70896541e+02 -8.00538406e+02  9.34e-14 7.28e-12  2.61e-01     0s
   8   7.04499449e+01 -1.72626272e+02  1.02e-13 1.46e-11  6.54e-02     0s
   9   5.37144256e+01 -3.55226417e+01  5.86e-14 3.64e-12  2.40e-02     0s
  10   4.34002195e+01  1.60255991e+01  3.21e-13 7.28e-12  7.36e-03     0s
  11   3.89625026e+01  2.85587338e+01  5.75e-13 7.28e-12  2.80e-03     0s
  12   3.62341929e+01  3.32768378e+01  7.53e-13 7.28e-12  7.95e-04     0s
  13   3.58110907e+01  3.47286333e+01  1.42e-12 3.64e-12  2.91e-04     0s
  14   3.53340261e+01  3.49893310e+01  4.71e-12 1.82e-12  9.27e-05     0s
  15   3.52180806e+01  3.51029657e+01  6.00e-12 7.28e-12  3.10e-05     0s
  16   3.51442276e+01  3.51205299e+01  4.76e-12 7.28e-12  6.37e-06     0s
  17   3.51353937e+01  3.51278092e+01  3.49e-12 3.64e-12  2.04e-06     0s
  18   3.51351365e+01  3.51348305e+01  4.42e-12 7.28e-12  8.23e-08     0s
  19   3.51351198e+01  3.51350647e+01  1.39e-09 3.64e-12  1.48e-08     0s
  20   3.51351161e+01  3.51351158e+01  2.01e-11 3.64e-12  7.21e-11     0s
  21   3.51351159e+01  3.51351159e+01  4.18e-11 3.64e-12  5.84e-13     0s

Barrier solved model in 21 iterations and 0.34 seconds (0.06 work units)
Optimal objective 3.51351159e+01


Root relaxation: objective 3.513512e+01, 224 iterations, 0.25 seconds (0.04 work units)

    Nodes    |    Current Node    |     Objective Bounds      |     Work
 Expl Unexpl |  Obj  Depth IntInf | Incumbent    BestBd   Gap | It/Node Time

     0     0   35.13512    0   11   93.39928   35.13512  62.4%     -    0s
H    0     0                      80.2500862   35.13512  56.2%     -    0s
H    0     0                      70.9194239   35.41234  50.1%     -    0s
     0     0   35.41234    0    8   70.91942   35.41234  50.1%     -    0s
     0     0   36.02826    0    9   70.91942   36.02826  49.2%     -    0s
     0     0   36.43151    0   11   70.91942   36.43151  48.6%     -    0s
H    0     0                      67.1607149   36.43151  45.8%     -    0s
H    0     0                      62.0271424   36.80001  40.7%     -    0s
     0     0   36.80001    0   12   62.02714   36.80001  40.7%     -    0s
     0     0   37.08346    0   13   62.02714   37.08346  40.2%     -    0s
     0     0   37.08346    0   13   62.02714   37.08346  40.2%     -    0s
     0     0   37.67761    0   13   62.02714   37.67761  39.3%     -    0s
     0     0   38.43756    0    9   62.02714   38.43756  38.0%     -    0s
     0     0   39.84647    0    9   62.02714   39.84647  35.8%     -    0s
     0     0   40.65687    0    9   62.02714   40.65687  34.5%     -    0s
H    0     0                      55.8530887   40.65687  27.2%     -    0s
     0     2   40.65687    0    9   55.85309   40.65687  27.2%     -    0s
H   99   125                      53.9951487   40.71431  24.6%  54.4    1s
H  109   125                      53.8830292   40.80158  24.3%  54.6    1s

Cutting planes:
  Gomory: 8
  Implied bound: 2
  MIR: 35
  Relax-and-lift: 9

Explored 1736 nodes (62005 simplex iterations) in 4.15 seconds (3.95 work units)
Thread count was 36 (of 36 available processors)

Solution count 8: 53.883 53.9951 55.8531 ... 93.3993

Optimal solution found (tolerance 1.00e-02)
Best objective 5.388302921850e+01, best bound 5.388302921850e+01, gap 0.0000%

Gurobi 9.5.0 (linux64) logging started Fri Dec  8 09:10:10 2023

Set parameter LogFile to value "/lustre1/scratch/348/vsc34888/JointResearch/05.Models/06.Benchmarking/F.Representative_days_based_on_Line_Benefit_NN_OC_fy_1/RTS24_mod1_ByStages_nc10/openStarNet_RTS24_mod1_ByStages_nc10.log"
Set parameter Method to value 2
Set parameter MIPFocus to value 1
Set parameter Presolve to value 2
Set parameter RINS to value 100
Set parameter MIPGap to value 0.01
Set parameter Threads to value 36
Set parameter TimeLimit to value 259200
Set parameter IterationLimit to value 760000000
No parameters matching 'relax_integrality' found
Gurobi Optimizer version 9.5.0 build v9.5.0rc5 (linux64)
Thread count: 36 physical cores, 36 logical processors, using up to 36 threads
Optimize a model with 3908 rows, 2642 columns and 9714 nonzeros
Model fingerprint: 0xa574b7ed
Coefficient statistics:
  Matrix range     [1e-02, 4e+03]
  Objective range  [1e+00, 1e+00]
  Bounds range     [9e-05, 3e+00]
  RHS range        [9e-05, 3e+01]
Presolve removed 3237 rows and 1455 columns
Presolve time: 0.01s
Presolved: 671 rows, 1198 columns, 2991 nonzeros

Ordering time: 0.00s

Barrier statistics:
 AA' NZ     : 1.508e+03
 Factor NZ  : 5.520e+03 (roughly 1 MB of memory)
 Factor Ops : 6.981e+04 (less than 1 second per iteration)
 Threads    : 1

                  Objective                Residual
Iter       Primal          Dual         Primal    Dual     Compl     Time
   0   2.24443823e+06 -1.22539347e+08  7.62e+00 8.49e+03  5.11e+05     0s
   1   1.75248326e+05 -7.96602542e+07  5.62e-01 3.76e-10  6.63e+04     0s
   2   5.47978759e+04 -2.24256577e+07  1.29e-01 3.73e-10  1.40e+04     0s
   3   3.13104232e+04 -4.40816885e+06  3.63e-02 2.87e-10  2.48e+03     0s
   4   2.20007085e+04 -2.80072308e+05  1.81e-12 2.43e-10  1.52e+02     0s
   5   7.16414195e+03 -4.72491466e+04  1.75e-12 1.01e-10  2.73e+01     0s
   6   1.22461381e+03 -5.77835921e+03  5.61e-13 5.82e-11  3.52e+00     0s
   7   3.67564715e+02 -7.66702503e+02  4.72e-13 5.82e-11  5.70e-01     0s
   8   1.21911468e+02 -9.51101210e+01  2.22e-13 1.16e-10  1.09e-01     0s
   9   7.21989429e+01  2.55125377e+01  1.81e-13 2.91e-11  2.35e-02     0s
  10   6.27003048e+01  4.06610983e+01  1.09e-13 7.28e-12  1.11e-02     0s
  11   5.70662053e+01  5.04314779e+01  1.03e-12 2.91e-11  3.33e-03     0s
  12   5.45648512e+01  5.21229293e+01  2.01e-12 1.46e-11  1.23e-03     0s
  13   5.39616275e+01  5.37591717e+01  1.86e-12 5.82e-11  1.02e-04     0s
  14   5.38933024e+01  5.38724080e+01  9.09e-13 1.16e-10  1.05e-05     0s
  15   5.38831690e+01  5.38827570e+01  5.51e-12 1.16e-10  2.07e-07     0s
  16   5.38830304e+01  5.38830274e+01  4.10e-13 2.91e-11  1.52e-09     0s
  17   5.38830292e+01  5.38830292e+01  8.34e-13 1.46e-11  1.72e-15     0s

Barrier solved model in 17 iterations and 0.02 seconds (0.01 work units)
Optimal objective 5.38830292e+01

Crossover log...

     144 DPushes remaining with DInf 0.0000000e+00                 0s
       0 DPushes remaining with DInf 0.0000000e+00                 0s

      30 PPushes remaining with PInf 0.0000000e+00                 0s
       0 PPushes remaining with PInf 0.0000000e+00                 0s

  Push phase complete: Pinf 0.0000000e+00, Dinf 3.9880875e-13      0s

Iteration    Objective       Primal Inf.    Dual Inf.      Time
      34    5.3883029e+01   0.000000e+00   0.000000e+00      0s

Use crossover to convert LP symmetric solution to basic solution...
Crossover log...

       0 DPushes remaining with DInf 0.0000000e+00                 0s

      23 PPushes remaining with PInf 0.0000000e+00                 0s
       0 PPushes remaining with PInf 0.0000000e+00                 0s

  Push phase complete: Pinf 0.0000000e+00, Dinf 1.0843555e-12      0s

Iteration    Objective       Primal Inf.    Dual Inf.      Time
      65    5.3883029e+01   0.000000e+00   0.000000e+00      0s

Solved in 65 iterations and 0.03 seconds (0.02 work units)
Optimal objective  5.388302922e+01

Gurobi 9.5.0 (linux64) logging started Fri Dec  8 11:37:10 2023

Set parameter LogFile to value "/lustre1/scratch/348/vsc34888/JointResearch/05.Models/06.Benchmarking/F.Representative_days_based_on_Line_Benefit_NN_OC_fy_1/RTS24_mod1_ByStages_nc10/openStarNet_RTS24_mod1_ByStages_nc10.log"
Set parameter Method to value 2
Set parameter MIPFocus to value 1
Set parameter Presolve to value 2
Set parameter RINS to value 100
Set parameter MIPGap to value 0.01
Set parameter Threads to value 36
Set parameter TimeLimit to value 259200
Set parameter IterationLimit to value 760000000
Gurobi Optimizer version 9.5.0 build v9.5.0rc5 (linux64)
Thread count: 36 physical cores, 36 logical processors, using up to 36 threads
Optimize a model with 3908 rows, 2662 columns and 10657 nonzeros
Model fingerprint: 0xb0047489
Variable types: 2641 continuous, 21 integer (21 binary)
Coefficient statistics:
  Matrix range     [2e-02, 2e+03]
  Objective range  [1e+00, 1e+00]
  Bounds range     [2e-04, 2e+00]
  RHS range        [2e-04, 2e+00]
Presolve removed 2330 rows and 1344 columns
Presolve time: 0.03s
Presolved: 1578 rows, 1318 columns, 5702 nonzeros
Variable types: 1297 continuous, 21 integer (21 binary)
Found heuristic solution: objective 122.4896004
Root relaxation presolve removed 2 rows and 2 columns
Root relaxation presolved: 1576 rows, 1316 columns, 5698 nonzeros

Root barrier log...

Ordering time: 0.02s

Barrier statistics:
 AA' NZ     : 2.814e+04
 Factor NZ  : 1.409e+05 (roughly 2 MB of memory)
 Factor Ops : 1.894e+07 (less than 1 second per iteration)
 Threads    : 36

                  Objective                Residual
Iter       Primal          Dual         Primal    Dual     Compl     Time
   0   8.73306859e+05 -3.52779551e+07  7.05e+00 7.13e+02  3.30e+04     0s
   1   1.25587928e+05 -1.11664008e+07  9.95e-01 5.68e-11  5.08e+03     0s
   2   2.81243327e+04 -7.58008573e+06  1.98e-01 1.04e-10  2.37e+03     0s
   3   7.72715333e+03 -6.38573141e+05  6.35e-03 2.82e-11  1.77e+02     0s
   4   5.03986045e+03 -2.37518380e+05  9.10e-04 2.55e-11  6.55e+01     0s
   5   2.00196414e+03 -2.84648661e+04  1.95e-13 3.64e-12  8.20e+00     0s
   6   5.01152680e+02 -4.88193203e+03  1.54e-13 7.28e-12  1.45e+00     0s
   7   3.90243360e+02 -9.99717479e+02  8.07e-14 1.82e-12  3.74e-01     0s
   8   1.63404260e+02 -3.12107899e+02  6.43e-14 3.64e-12  1.28e-01     0s
   9   1.02648623e+02 -5.57196021e+01  4.92e-14 2.73e-12  4.26e-02     0s
  10   7.37308120e+01  2.49083419e+01  9.83e-14 3.64e-12  1.31e-02     0s
  11   6.28545113e+01  3.96247670e+01  1.96e-13 3.64e-12  6.25e-03     0s
  12   5.61213626e+01  4.63970706e+01  3.22e-12 1.82e-12  2.62e-03     0s
  13   5.40737241e+01  4.97084292e+01  1.06e-12 3.64e-12  1.18e-03     0s
  14   5.21645202e+01  5.07766538e+01  2.19e-12 5.46e-12  3.74e-04     0s
  15   5.15300254e+01  5.09795736e+01  1.39e-11 3.64e-12  1.48e-04     0s
  16   5.11848697e+01  5.11087822e+01  1.51e-11 1.82e-12  2.05e-05     0s
  17   5.11367645e+01  5.11352340e+01  2.79e-11 3.64e-12  4.12e-07     0s
  18   5.11361715e+01  5.11361700e+01  6.03e-12 3.64e-12  4.12e-10     0s
  19   5.11361709e+01  5.11361709e+01  1.08e-11 7.28e-12  3.68e-12     0s

Barrier solved model in 19 iterations and 0.32 seconds (0.06 work units)
Optimal objective 5.11361709e+01


Root relaxation: objective 5.113617e+01, 231 iterations, 0.24 seconds (0.04 work units)

    Nodes    |    Current Node    |     Objective Bounds      |     Work
 Expl Unexpl |  Obj  Depth IntInf | Incumbent    BestBd   Gap | It/Node Time

     0     0   51.13617    0   13  122.48960   51.13617  58.3%     -    0s
H    0     0                     105.2305137   52.15814  50.4%     -    0s
     0     0   52.27733    0   10  105.23051   52.27733  50.3%     -    0s
H    0     0                     102.0920059   52.27733  48.8%     -    0s
H    0     0                      95.6527010   52.27733  45.3%     -    0s
     0     0   52.27733    0    9   95.65270   52.27733  45.3%     -    0s
     0     0   53.44951    0    7   95.65270   53.44951  44.1%     -    0s
     0     0   53.44951    0    9   95.65270   53.44951  44.1%     -    0s
H    0     0                      85.4978959   53.44951  37.5%     -    0s
     0     0   53.48818    0    9   85.49790   53.48818  37.4%     -    0s
     0     0   53.84705    0   10   85.49790   53.84705  37.0%     -    0s
     0     0   55.09550    0    8   85.49790   55.09550  35.6%     -    0s
H    0     0                      77.5949985   55.09550  29.0%     -    0s
     0     0   56.09362    0    8   77.59500   56.09362  27.7%     -    0s
     0     0   56.22917    0    8   77.59500   56.22917  27.5%     -    0s
     0     0   57.54006    0    9   77.59500   57.54006  25.8%     -    0s
H    0     0                      71.2636383   57.54006  19.3%     -    0s
     0     2   57.54006    0    9   71.26364   57.54006  19.3%     -    0s
H  106   125                      71.1478841   57.54006  19.1%  54.0    1s
H  107   125                      70.0849382   57.54006  17.9%  53.7    1s
H  123   125                      69.9479817   57.54006  17.7%  51.7    1s

Cutting planes:
  Gomory: 2
  MIR: 38
  Relax-and-lift: 9

Explored 2453 nodes (62710 simplex iterations) in 4.18 seconds (3.89 work units)
Thread count was 36 (of 36 available processors)

Solution count 10: 69.948 70.0849 71.1479 ... 122.49

Optimal solution found (tolerance 1.00e-02)
Best objective 6.994798171183e+01, best bound 6.994798171183e+01, gap 0.0000%

Gurobi 9.5.0 (linux64) logging started Fri Dec  8 11:37:14 2023

Set parameter LogFile to value "/lustre1/scratch/348/vsc34888/JointResearch/05.Models/06.Benchmarking/F.Representative_days_based_on_Line_Benefit_NN_OC_fy_1/RTS24_mod1_ByStages_nc10/openStarNet_RTS24_mod1_ByStages_nc10.log"
Set parameter Method to value 2
Set parameter MIPFocus to value 1
Set parameter Presolve to value 2
Set parameter RINS to value 100
Set parameter MIPGap to value 0.01
Set parameter Threads to value 36
Set parameter TimeLimit to value 259200
Set parameter IterationLimit to value 760000000
No parameters matching 'relax_integrality' found
Gurobi Optimizer version 9.5.0 build v9.5.0rc5 (linux64)
Thread count: 36 physical cores, 36 logical processors, using up to 36 threads
Optimize a model with 3908 rows, 2641 columns and 9712 nonzeros
Model fingerprint: 0xd648bba9
Coefficient statistics:
  Matrix range     [2e-02, 2e+03]
  Objective range  [1e+00, 1e+00]
  Bounds range     [2e-04, 2e+00]
  RHS range        [2e-04, 3e+01]
Presolve removed 3248 rows and 1477 columns
Presolve time: 0.01s
Presolved: 660 rows, 1186 columns, 2858 nonzeros

Ordering time: 0.00s

Barrier statistics:
 AA' NZ     : 1.472e+03
 Factor NZ  : 5.166e+03 (roughly 1 MB of memory)
 Factor Ops : 6.236e+04 (less than 1 second per iteration)
 Threads    : 1

                  Objective                Residual
Iter       Primal          Dual         Primal    Dual     Compl     Time
   0   1.84416994e+06 -1.74209882e+07  1.02e+01 2.86e+03  8.47e+04     0s
   1   1.46688882e+05 -1.07500585e+07  7.73e-01 4.58e-11  1.02e+04     0s
   2   5.11709766e+04 -3.71272506e+06  2.28e-01 1.62e-10  2.69e+03     0s
   3   2.14575211e+04 -7.74965807e+05  1.16e-02 4.06e-11  4.21e+02     0s
   4   1.20424291e+04 -6.72329376e+04  9.66e-12 3.64e-11  4.03e+01     0s
   5   2.32337504e+03 -1.06994307e+04  3.76e-12 7.28e-12  6.62e+00     0s
   6   4.92962164e+02 -3.02671529e+03  1.50e-12 3.64e-12  1.79e+00     0s
   7   3.51964741e+02 -1.33508153e+03  6.96e-13 7.28e-12  8.58e-01     0s
   8   2.04195911e+02 -1.26649713e+02  4.43e-12 1.46e-11  1.68e-01     0s
   9   1.01473348e+02  1.06262479e+01  1.12e-12 7.28e-12  4.62e-02     0s
  10   8.42216499e+01  5.09285322e+01  1.03e-12 3.64e-12  1.69e-02     0s
  11   7.15890645e+01  6.36060441e+01  3.82e-12 7.28e-12  4.06e-03     0s
  12   7.02837847e+01  6.76426224e+01  9.93e-13 1.46e-11  1.34e-03     0s
  13   6.99742983e+01  6.95460011e+01  3.28e-12 7.28e-12  2.18e-04     0s
  14   6.99518108e+01  6.98891779e+01  1.87e-12 1.46e-11  3.19e-05     0s
  15   6.99486435e+01  6.99459681e+01  5.17e-12 1.46e-11  1.36e-06     0s
  16   6.99479819e+01  6.99479792e+01  4.75e-12 2.91e-11  1.37e-09     0s
  17   6.99479817e+01  6.99479817e+01  2.39e-12 7.28e-12  1.69e-15     0s

Barrier solved model in 17 iterations and 0.02 seconds (0.01 work units)
Optimal objective 6.99479817e+01

Crossover log...

     146 DPushes remaining with DInf 0.0000000e+00                 0s
       0 DPushes remaining with DInf 0.0000000e+00                 0s

      25 PPushes remaining with PInf 0.0000000e+00                 0s
       0 PPushes remaining with PInf 0.0000000e+00                 0s

  Push phase complete: Pinf 0.0000000e+00, Dinf 8.0741487e-13      0s

Iteration    Objective       Primal Inf.    Dual Inf.      Time
      31    6.9947982e+01   0.000000e+00   0.000000e+00      0s

Use crossover to convert LP symmetric solution to basic solution...
Crossover log...

      16 PPushes remaining with PInf 0.0000000e+00                 0s
       0 PPushes remaining with PInf 0.0000000e+00                 0s

  Push phase complete: Pinf 0.0000000e+00, Dinf 6.0096752e-13      0s

Iteration    Objective       Primal Inf.    Dual Inf.      Time
      50    6.9947982e+01   0.000000e+00   0.000000e+00      0s

Solved in 50 iterations and 0.02 seconds (0.01 work units)
Optimal objective  6.994798171e+01
